p tdp 62 61
18 1
12 4
31 61
10 61
23 45
37 20
51 5
33 39
44 49
56 10
50 5
19 21
54 58
62 48
53 32
5 41
24 59
38 21
41 45
40 30
11 38
52 53
6 8
29 3
10 2
18 35
15 17
42 49
54 25
61 44
61 14
37 58
34 7
62 3
27 16
27 30
41 26
43 17
51 28
39 48
22 41
52 59
13 21
43 55
34 61
46 60
60 8
55 12
21 6
57 22
9 26
47 24
39 38
36 5
27 12
53 35
25 47
62 25
34 55
15 25
49 5
